20
 N1C2W2_A 
 120 50 0 
100
97
97
95
93
87
87
86
82
82
78
76
76
75
74
71
68
66
65
63
59
59
58
58
57
52
51
46
46
46
43
42
42
41
41
41
38
37
36
36
32
32
31
30
27
25
22
22
22
21
 N1C2W2_B 
 120 50 0 
100
98
98
97
95
94
90
90
89
86
85
83
81
79
79
74
72
72
71
68
67
65
64
64
62
59
58
56
55
55
54
51
51
50
47
46
45
44
43
40
36
34
33
31
29
28
27
27
26
21
 N1C2W2_C 
 120 50 0 
100
98
97
95
93
91
90
87
85
83
83
81
81
79
76
74
74
73
73
71
71
70
67
67
66
62
62
60
57
54
54
53
52
51
51
50
49
48
48
45
44
44
40
36
34
32
31
27
26
20
 N1C2W2_D 
 120 50 0 
99
98
98
97
96
90
88
86
82
82
80
79
76
76
76
74
69
67
66
64
62
59
55
52
51
51
50
49
44
43
41
41
41
41
41
37
35
33
32
32
31
31
31
30
29
23
23
22
20
20
 N1C2W2_E 
 120 50 0 
100
99
99
99
99
98
98
94
93
92
92
89
89
89
84
83
80
80
78
77
75
74
74
70
70
68
68
66
63
62
60
59
58
58
58
55
54
53
52
49
42
41
36
35
35
31
26
23
22
20
 N1C2W2_F 
 120 50 0 
100
100
99
99
98
91
90
84
83
81
78
78
75
73
72
72
71
70
68
66
62
59
58
58
57
54
53
53
51
51
51
51
48
45
45
42
42
39
37
37
35
32
31
31
26
26
25
21
21
20
 N1C2W2_G 
 120 50 0 
100
97
94
93
93
91
89
89
86
85
85
82
81
80
80
80
80
79
77
75
74
72
67
67
63
62
59
58
58
57
54
54
53
51
48
47
46
44
44
41
41
39
36
35
33
32
32
29
28
24
 N1C2W2_H 
 120 50 0 
99
98
93
93
91
88
85
82
80
78
76
70
68
67
66
65
61
61
57
56
56
53
52
52
52
51
48
47
46
44
43
43
43
41
41
41
37
37
36
36
35
33
33
32
31
27
26
22
22
21
 N1C2W2_I 
 120 50 0 
96
92
92
91
91
90
89
88
83
83
81
79
77
76
76
71
70
68
68
66
63
63
63
62
60
60
58
57
53
53
52
52
49
47
45
44
41
38
37
34
33
32
31
29
27
26
25
23
21
21
 N1C2W2_J 
 120 50 0 
100
98
96
95
95
93
91
89
89
88
88
81
80
78
73
72
69
67
64
61
60
54
52
52
51
50
50
49
49
47
46
44
43
42
41
40
40
39
36
33
33
28
26
26
25
23
22
22
22
20
 N1C2W2_K 
 120 50 0 
97
97
95
91
91
89
85
85
82
82
81
75
74
73
70
70
70
69
68
67
67
67
65
63
63
63
62
61
60
60
55
48
46
45
45
45
45
44
43
43
42
41
39
37
36
30
28
22
22
22
 N1C2W2_L 
 120 50 0 
96
95
93
92
90
87
87
86
86
86
85
84
83
82
78
78
78
78
77
76
76
72
72
71
70
68
65
65
62
59
58
51
42
42
40
38
38
36
34
34
33
32
30
29
29
27
26
25
24
23
 N1C2W2_M 
 120 50 0 
100
99
99
99
97
95
95
94
93
92
92
88
86
86
86
84
79
78
78
77
76
69
68
65
61
60
58
57
57
55
54
54
53
53
52
52
51
48
47
43
43
40
39
38
36
34
33
28
27
25
 N1C2W2_N 
 120 50 0 
99
97
95
94
88
87
85
83
82
78
75
72
71
71
70
69
67
67
65
64
63
62
59
59
58
58
58
58
58
54
53
53
52
49
49
48
45
45
44
43
43
42
40
38
36
34
30
30
24
20
 N1C2W2_O 
 120 50 0 
100
99
98
96
94
90
89
88
88
86
84
81
81
80
79
79
78
76
72
72
72
68
68
65
63
63
63
62
62
57
57
55
48
48
47
45
44
44
41
39
36
33
31
30
28
26
25
24
22
20
 N1C2W2_P 
 120 50 0 
94
93
91
90
90
88
87
82
77
75
72
71
70
70
69
69
66
65
63
59
57
56
53
51
48
48
48
47
44
44
43
42
41
40
39
38
37
36
36
32
31
31
29
29
27
23
23
21
20
20
 N1C2W2_Q 
 120 50 0 
96
96
91
90
89
86
86
84
83
83
82
82
82
82
79
75
73
72
71
69
68
67
67
66
65
63
62
61
59
59
59
59
58
56
56
55
54
53
50
45
41
39
35
33
29
25
24
21
20
20
 N1C2W2_R 
 120 50 0 
99
98
96
91
88
88
86
86
82
82
81
78
77
77
76
76
72
72
70
68
67
64
61
60
59
56
55
49
48
47
47
46
44
43
43
42
40
40
39
38
35
34
30
30
29
27
26
21
20
20
 N1C2W2_S 
 120 50 0 
100
94
94
92
91
87
87
85
82
78
76
75
72
72
72
69
61
61
61
61
61
56
55
54
53
51
51
50
47
44
44
44
44
42
42
39
38
36
34
33
33
32
31
30
29
28
26
25
23
23
 N1C2W2_T 
 120 50 0 
100
96
96
91
84
83
83
83
81
81
80
80
77
77
72
70
70
68
68
67
65
64
63
62
60
59
58
51
51
50
49
47
47
47
46
45
43
43
41
38
37
36
35
31
31
29
28
27
26
20
